n_res = 4;
rc = [ 23, 21, 18, 19 ];
n_tasks = 30;
d = [ 2, 6, 8, 6, 8, 3, 3, 4, 7, 6, 4, 2, 5, 10, 5, 3, 10, 7, 1, 7, 3, 1, 1, 7, 4, 4, 2, 7, 8, 10 ];
rr = [| 0, 3, 7, 0, 4, 1, 0, 8, 10, 7, 9, 7, 1, 4, 3, 3, 8, 4, 3, 7, 10, 0, 9, 1, 3, 0, 0, 3, 5, 3
      | 7, 4, 0, 9, 5, 8, 2, 8, 3, 6, 6, 3, 8, 2, 3, 0, 0, 0, 6, 1, 2, 8, 0, 2, 8, 10, 4, 3, 5, 9
      | 4, 7, 10, 3, 0, 2, 8, 2, 6, 0, 0, 5, 0, 7, 1, 7, 6, 8, 0, 0, 4, 2, 0, 7, 4, 7, 0, 1, 10, 2
      | 7, 0, 8, 10, 4, 7, 6, 0, 10, 0, 4, 0, 3, 2, 0, 8, 4, 5, 1, 0, 0, 5, 10, 0, 5, 0, 0, 9, 2, 4 |];
suc = [ { 2 }, 
        { 3 }, 
        { 4 }, 
        { 5 }, 
        { 6 }, 
        { 7 }, 
        { 8 }, 
        { 9 }, 
        { 10 }, 
        { 11 }, 
        { 12 }, 
        { 13 }, 
        { 14 }, 
        { 15 }, 
        { 16 }, 
        { 17 }, 
        { 18 }, 
        { 19 }, 
        { 20 }, 
        { 21 }, 
        { 22 }, 
        { 23 }, 
        { 24 }, 
        { 25 }, 
        { 26 }, 
        { 27 }, 
        { 28 }, 
        { 29 }, 
        { 30 }, 
        {  }]; 
